
## tournament_1 ##

# Parametri

param num_teams = 4; 			#numero di squadre 
set Teams := A, B, C, D;

#param interest:				#livello di interesse tra ogni match 
#	A	B	C	D :=
#A	0	2	3	3	
#B	2	0	1	2		
#C	3	1	0	3	
#D	3	2	3	0;

param interest:					#livello di interesse tra ogni match 
	A	B	C	D :=
A	0	3	1	3	
B	3	0	1	3		
C	1	1	0	1	
D	3	3	1	0;





